N = 90;
F = 5;
MaxItemsPerDay = 30;
MaxDay = 40;
name = ["i1", "i2", "i3", "i4", "i5", "i6", "i7", "i8", "i9", "i10", "i11", "i12", "i13", "i14", "i15", "i16", "i17", "i18", "i19", "i20", "i21", "i22", "i23", "i24", "i25", "i26", "i27", "i28", "i29", "i30", "i31", "i32", "i33", "i34", "i35", "i36", "i37", "i38", "i39", "i40", "i41", "i42", "i43", "i44", "i45", "i46", "i47", "i48", "i49", "i50", "i51", "i52", "i53", "i54", "i55", "i56", "i57", "i58", "i59", "i60", "i61", "i62", "i63", "i64", "i65", "i66", "i67", "i68", "i69", "i70", "i71", "i72", "i73", "i74", "i75", "i76", "i77", "i78", "i79", "i80", "i81", "i82", "i83", "i84", "i85", "i86", "i87", "i88", "i89", "i90"];
kind = [2, 4, 3, 6, 6, 2, 3, 3, 6, 2, 4, 2, 2, 6, 5, 5, 3, 1, 1, 5, 6, 5, 2, 4, 1, 1, 1, 1, 5, 4, 3, 5, 1, 1, 5, 3, 1, 5, 6, 1, 5, 4, 6, 5, 3, 6, 1, 1, 5, 3, 6, 5, 2, 1, 3, 6, 4, 3, 3, 3, 4, 4, 1, 6, 1, 4, 4, 2, 3, 3, 6, 2, 4, 5, 2, 3, 6, 4, 4, 4, 6, 1, 1, 6, 2, 2, 2, 1, 5, 3];
facility = [
  { 2 },
  { 3, 4, 5 },
  { 2, 3, 5 },
  { 4, 5 },
  { 3 },
  { 1, 2 },
  { 2, 3, 5 },
  { 2, 3 },
  { 3 },
  { 1, 2, 5 },
  { 4 },
  { 1, 2, 3 },
  { 1, 2, 5 },
  { 2, 3, 4 },
  { 3, 4, 5 },
  { 2, 4, 5 },
  { 1, 3, 4, 5 },
  { 1, 3, 4, 5 },
  { 1, 2, 3, 5 },
  { 3, 5 },
  { 1, 2, 4, 5 },
  { 2, 5 },
  { 1, 2, 3 },
  { 1, 3, 4, 5 },
  { 1, 3, 4, 5 },
  { 1, 2, 5 },
  { 1, 2 },
  { 1, 4, 5 },
  { 1, 2, 3, 5 },
  { 2, 3, 4, 5 },
  { 3 },
  { 2, 5 },
  { 1, 3, 5 },
  { 1, 4, 5 },
  { 3, 5 },
  { 2, 3, 4, 5 },
  { 1, 3, 4 },
  { 3, 5 },
  { 1, 3, 4 },
  { 1, 3, 4, 5 },
  { 1, 3, 5 },
  { 1, 3, 4 },
  { 2, 3, 4, 5 },
  { 3, 5 },
  { 1, 2, 3, 4 },
  { 1, 3, 4 },
  { 1, 3, 4, 5 },
  { 1, 2, 3, 4 },
  { 2, 3, 4, 5 },
  { 1, 2, 3, 4 },
  { 1 },
  { 1, 2, 5 },
  { 1, 2, 3, 5 },
  { 1, 5 },
  { 1, 3, 5 },
  { 1, 2, 3 },
  { 1, 2, 3, 4 },
  { 1, 3, 5 },
  { 1, 2, 3, 4, 5 },
  { 1, 2, 3, 4 },
  { 1, 4, 5 },
  { 1, 2, 4, 5 },
  { 1 },
  { 2, 5 },
  { 1, 4 },
  { 2, 3, 4, 5 },
  { 2, 4 },
  { 2 },
  { 1, 3, 4 },
  { 1, 3, 5 },
  { 2, 3 },
  { 1, 2, 3, 5 },
  { 1, 2, 4 },
  { 4, 5 },
  { 1, 2, 3, 5 },
  { 1, 3 },
  { 2, 3 },
  { 4, 5 },
  { 1, 3, 4, 5 },
  { 1, 2, 4, 5 },
  { 3 },
  { 1, 2, 3, 5 },
  { 1, 5 },
  { 1, 3, 4 },
  { 2, 3, 4, 5 },
  { 1, 2 },
  { 1, 2, 3 },
  { 1, 4, 5 },
  { 3, 4, 5 },
  { 1, 3, 5 }
];
producedDay = [20, 20, 20, 13, 20, 20, 20, 20, 20, 20, 20, 3, 20, 20, 20, 20, 20, 20, 20, 11, 20, 20, 20, 20, 11, 2, 20, 20, 20, 2, 20, 20, 20, 20, 20, 16, 20, 20, 1, 20, 20, 20, 20, 20, 20, 16, 20, 20, 20, 20, 20, 20, 20, 20, 10, 20, 20, 10, 20, 20, 20, 11, 20, 20, 20, 20, 20, 14, 20, 20, 20, 20, 20, 20, 20, 20, 20, 20, 20, 20, 20, 20, 20, 20, 20, 20, 20, 20, 20, 4];
deadLineDay = [22, 32, 40, 32, 40, 23, 34, 21, 40, 40, 40, 11, 40, 40, 30, 40, 40, 40, 40, 40, 40, 31, 40, 40, 28, 30, 40, 40, 40, 29, 34, 39, 40, 21, 27, 40, 24, 40, 21, 22, 40, 40, 40, 33, 40, 30, 31, 40, 40, 39, 40, 21, 40, 24, 40, 23, 39, 31, 38, 38, 40, 40, 21, 28, 40, 40, 32, 40, 40, 36, 35, 39, 27, 40, 40, 40, 40, 32, 40, 35, 40, 26, 32, 38, 40, 40, 40, 40, 40, 34];
